
n_res = 4;
rcap = [25, 27, 470, 535];
rtype = [1, 1, 2, 2];
n_tasks = 50;
modes =  [{1, 2, 3, 4, 5, 6}, {7, 8, 9, 10, 11, 12}, {13, 14, 15, 16, 17, 18}, {19, 20, 21, 22, 23, 24}, {25, 26, 27, 28, 29, 30}, {31, 32, 33, 34, 35, 36}, {37, 38, 39, 40, 41, 42}, {43, 44, 45, 46, 47, 48}, {49, 50, 51, 52, 53, 54}, {55, 56, 57, 58, 59, 60}, {61, 62, 63, 64, 65, 66}, {67, 68, 69, 70, 71, 72}, {73, 74, 75, 76, 77, 78}, {79, 80, 81, 82, 83, 84}, {85, 86, 87, 88, 89, 90}, {91, 92, 93, 94, 95, 96}, {97, 98, 99, 100, 101, 102}, {103, 104, 105, 106, 107, 108}, {109, 110, 111, 112, 113, 114}, {115, 116, 117, 118, 119, 120}, {121, 122, 123, 124, 125, 126}, {127, 128, 129, 130, 131, 132}, {133, 134, 135, 136, 137, 138}, {139, 140, 141, 142, 143, 144}, {145, 146, 147, 148, 149, 150}, {151, 152, 153, 154, 155, 156}, {157, 158, 159, 160, 161, 162}, {163, 164, 165, 166, 167, 168}, {169, 170, 171, 172, 173, 174}, {175, 176, 177, 178, 179, 180}, {181, 182, 183, 184, 185, 186}, {187, 188, 189, 190, 191, 192}, {193, 194, 195, 196, 197, 198}, {199, 200, 201, 202, 203, 204}, {205, 206, 207, 208, 209, 210}, {211, 212, 213, 214, 215, 216}, {217, 218, 219, 220, 221, 222}, {223, 224, 225, 226, 227, 228}, {229, 230, 231, 232, 233, 234}, {235, 236, 237, 238, 239, 240}, {241, 242, 243, 244, 245, 246}, {247, 248, 249, 250, 251, 252}, {253, 254, 255, 256, 257, 258}, {259, 260, 261, 262, 263, 264}, {265, 266, 267, 268, 269, 270}, {271, 272, 273, 274, 275, 276}, {277, 278, 279, 280, 281, 282}, {283, 284, 285, 286, 287, 288}, {289, 290, 291, 292, 293, 294}, {295, 296, 297, 298, 299, 300}];
succ =  [{48, 46, 34, 33, 30, 29, 24, 21, 19, 14, 12, 11}, {49, 47, 34, 33, 32, 28, 26, 5}, {34, 33, 29, 27, 24, 12, 7}, {49, 42, 31, 29, 24, 21, 9}, {46, 45, 44, 43, 31, 30, 14}, {48, 46, 43, 42, 40, 39, 38, 33, 30, 26, 25}, {47, 45, 44, 41, 40, 38, 30, 25, 22}, {49, 46, 43, 39, 28, 25, 21}, {45, 44, 43, 39, 25, 16}, {48, 44, 43, 42, 41, 40, 39, 38, 36, 30}, {47, 45, 44, 43, 42, 40, 39, 38, 25}, {47, 43, 40, 32, 31, 26, 25}, {46, 45, 44, 41, 40, 37, 36, 28}, {42, 40, 38, 27, 25}, {32, 30, 25}, {47, 46, 41, 40, 38, 35}, {40, 39, 38, 37, 36, 35}, {49, 39, 25}, {41, 38, 37, 36, 35}, {42, 25}, {44, 40, 36, 35}, {43, 42, 39, 36}, {48, 41, 39, 35}, {25}, {37, 36, 35}, {41, 37, 36}, {41, 39, 37}, {48, 42, 35}, {45, 38, 35}, {37, 35}, {37, 36}, {38}, {36}, {43}, {}, {}, {}, {}, {}, {}, {}, {}, {}, {}, {}, {}, {}, {}, {}, {}];
n_opt = 300;
dur = [7, 9, 11, 15, 18, 19, 5, 8, 10, 16, 17, 20, 2, 10, 13, 15, 18, 20, 5, 6, 8, 16, 17, 18, 3, 6, 12, 13, 14, 15, 6, 11, 13, 14, 15, 16, 2, 7, 8, 11, 17, 18, 3, 4, 5, 6, 7, 19, 3, 4, 5, 8, 14, 18, 5, 9, 12, 13, 18, 19, 12, 13, 14, 15, 17, 20, 1, 5, 9, 10, 12, 18, 4, 7, 10, 13, 16, 20, 1, 8, 9, 10, 11, 15, 2, 7, 9, 13, 16, 19, 1, 2, 11, 16, 19, 20, 1, 13, 15, 18, 19, 20, 5, 12, 14, 15, 18, 20, 4, 5, 10, 11, 12, 20, 1, 6, 10, 11, 13, 15, 3, 4, 5, 9, 18, 20, 3, 9, 14, 15, 19, 20, 4, 7, 9, 15, 17, 20, 1, 3, 12, 14, 17, 19, 3, 8, 11, 13, 17, 18, 6, 11, 13, 14, 15, 20, 9, 10, 13, 14, 16, 17, 6, 8, 9, 10, 12, 17, 5, 7, 9, 15, 17, 19, 1, 2, 7, 8, 10, 14, 1, 2, 8, 9, 12, 16, 3, 4, 7, 11, 12, 15, 3, 7, 11, 13, 17, 19, 10, 11, 14, 15, 16, 18, 2, 7, 13, 14, 15, 16, 6, 7, 9, 12, 14, 19, 3, 4, 7, 8, 13, 14, 1, 3, 4, 5, 12, 14, 4, 10, 11, 13, 14, 17, 1, 4, 12, 15, 16, 17, 8, 9, 10, 11, 18, 19, 3, 9, 10, 13, 14, 18, 3, 4, 5, 8, 9, 20, 1, 3, 4, 9, 15, 18, 3, 6, 16, 17, 18, 20, 2, 4, 5, 10, 14, 16, 2, 4, 7, 8, 11, 18, 1, 4, 5, 6, 8, 10, 3, 4, 9, 12, 16, 18, 1, 12, 13, 14, 15, 16];
rreq = [|4, 3, 3, 2, 1, 1, 3, 3, 3, 3, 2, 2, 4, 3, 2, 2, 1, 1, 5, 4, 4, 4, 4, 4, 1, 1, 1, 1, 1, 1, 3, 3, 3, 2, 2, 2, 4, 3, 3, 2, 1, 1, 4, 4, 4, 4, 4, 4, 4, 3, 3, 2, 1, 1, 1, 1, 1, 1, 1, 1, 3, 2, 2, 2, 1, 1, 3, 3, 3, 3, 3, 3, 2, 2, 2, 2, 2, 2, 3, 3, 3, 3, 3, 3, 1, 1, 1, 1, 1, 1, 1, 1, 1, 1, 1, 1, 5, 4, 4, 4, 4, 4, 2, 2, 2, 2, 2, 2, 2, 2, 2, 2, 1, 1, 4, 3, 3, 2, 2, 2, 2, 1, 1, 1, 1, 1, 1, 1, 1, 1, 1, 1, 2, 2, 2, 2, 2, 2, 5, 4, 4, 3, 3, 3, 1, 1, 1, 1, 1, 1, 3, 3, 3, 3, 3, 3, 3, 2, 2, 2, 2, 2, 4, 3, 3, 3, 2, 2, 5, 4, 4, 3, 3, 2, 4, 4, 4, 4, 4, 4, 2, 1, 1, 1, 1, 1, 4, 3, 3, 3, 3, 3, 5, 5, 5, 5, 5, 5, 1, 1, 1, 1, 1, 1, 2, 2, 2, 1, 1, 1, 3, 3, 3, 2, 2, 1, 5, 5, 5, 5, 5, 5, 3, 3, 2, 2, 1, 1, 4, 4, 4, 4, 4, 4, 2, 2, 2, 2, 2, 2, 4, 4, 3, 2, 1, 1, 4, 3, 3, 3, 3, 3, 4, 3, 3, 3, 3, 3, 1, 1, 1, 1, 1, 1, 3, 3, 3, 3, 3, 3, 4, 3, 3, 3, 3, 3, 3, 3, 3, 3, 3, 3, 2, 2, 2, 2, 2, 2, 5, 4, 4, 4, 3, 3, 5, 5, 5, 5, 5, 5
 |3, 3, 3, 3, 3, 3, 4, 4, 4, 4, 4, 4, 1, 1, 1, 1, 1, 1, 3, 3, 3, 2, 1, 1, 3, 2, 2, 2, 2, 2, 3, 3, 2, 2, 1, 1, 3, 2, 2, 2, 2, 2, 4, 3, 3, 2, 1, 1, 1, 1, 1, 1, 1, 1, 5, 4, 3, 2, 1, 1, 5, 4, 3, 3, 2, 2, 4, 3, 3, 2, 1, 1, 3, 2, 2, 1, 1, 1, 4, 3, 3, 3, 3, 3, 5, 4, 3, 3, 2, 1, 3, 3, 2, 2, 1, 1, 4, 4, 4, 4, 4, 4, 3, 3, 3, 2, 2, 2, 5, 4, 4, 4, 4, 4, 2, 1, 1, 1, 1, 1, 2, 1, 1, 1, 1, 1, 3, 2, 2, 2, 2, 2, 4, 3, 2, 2, 2, 1, 2, 2, 2, 2, 2, 2, 4, 4, 3, 3, 2, 1, 2, 2, 2, 2, 2, 2, 3, 3, 3, 3, 3, 3, 4, 3, 3, 3, 3, 3, 5, 4, 4, 3, 3, 3, 5, 4, 4, 3, 2, 2, 2, 2, 2, 2, 2, 2, 5, 5, 5, 5, 5, 5, 4, 3, 3, 2, 1, 1, 1, 1, 1, 1, 1, 1, 1, 1, 1, 1, 1, 1, 5, 4, 3, 3, 2, 2, 3, 3, 3, 3, 3, 3, 2, 2, 2, 2, 2, 2, 1, 1, 1, 1, 1, 1, 4, 4, 4, 4, 4, 4, 4, 3, 3, 3, 3, 3, 2, 2, 2, 2, 2, 2, 5, 4, 4, 4, 4, 4, 5, 4, 4, 4, 4, 4, 5, 4, 3, 3, 1, 1, 4, 3, 2, 2, 2, 1, 3, 2, 2, 1, 1, 1, 5, 5, 5, 5, 5, 5, 2, 2, 2, 2, 2, 2, 3, 2, 2, 1, 1, 1
 |12, 9, 9, 8, 5, 4, 4, 3, 3, 3, 2, 2, 13, 12, 10, 8, 4, 2, 6, 4, 4, 3, 3, 2, 6, 5, 5, 5, 4, 3, 18, 15, 14, 13, 9, 9, 6, 6, 6, 5, 4, 4, 14, 12, 9, 7, 5, 3, 15, 15, 15, 14, 14, 13, 17, 16, 15, 14, 12, 12, 9, 8, 7, 6, 6, 5, 3, 3, 2, 2, 2, 1, 17, 15, 15, 14, 12, 11, 4, 3, 3, 2, 2, 1, 19, 18, 18, 17, 17, 17, 18, 16, 12, 11, 7, 5, 2, 1, 1, 1, 1, 1, 13, 13, 13, 13, 12, 12, 6, 6, 4, 3, 2, 2, 16, 14, 13, 11, 10, 9, 10, 10, 7, 6, 5, 3, 19, 14, 14, 9, 9, 6, 13, 13, 10, 7, 5, 5, 15, 14, 14, 12, 9, 8, 17, 15, 14, 13, 10, 8, 10, 9, 8, 8, 7, 7, 19, 17, 16, 16, 14, 14, 11, 10, 10, 9, 9, 8, 17, 14, 12, 11, 9, 7, 11, 11, 8, 7, 4, 2, 11, 9, 9, 7, 5, 4, 17, 15, 10, 10, 7, 2, 12, 12, 11, 11, 11, 10, 10, 9, 8, 8, 6, 6, 15, 14, 14, 14, 14, 14, 14, 13, 13, 13, 12, 12, 10, 8, 7, 5, 4, 3, 6, 5, 5, 5, 5, 5, 12, 11, 10, 9, 6, 5, 11, 11, 11, 11, 11, 11, 19, 18, 17, 16, 15, 13, 17, 17, 15, 14, 14, 13, 14, 11, 11, 10, 8, 6, 13, 12, 9, 9, 6, 5, 2, 1, 1, 1, 1, 1, 19, 18, 17, 17, 15, 15, 5, 5, 5, 5, 5, 5, 18, 16, 14, 12, 12, 9, 13, 11, 9, 8, 6, 5, 11, 8, 8, 6, 4, 1
 |17, 15, 13, 11, 9, 7, 19, 18, 17, 16, 16, 15, 12, 11, 8, 6, 5, 4, 18, 17, 15, 14, 12, 10, 14, 12, 11, 10, 9, 8, 14, 14, 13, 12, 11, 10, 19, 17, 16, 16, 16, 15, 10, 8, 8, 7, 5, 5, 7, 7, 5, 4, 4, 3, 19, 17, 17, 15, 15, 14, 11, 11, 11, 11, 11, 11, 6, 5, 3, 2, 1, 1, 17, 17, 14, 11, 10, 6, 17, 16, 11, 10, 7, 3, 13, 12, 10, 9, 6, 5, 5, 4, 4, 4, 2, 2, 16, 16, 14, 12, 10, 8, 9, 8, 7, 9, 9, 8, 5, 4, 3, 3, 2, 1, 18, 15, 13, 9, 8, 3, 17, 16, 12, 11, 9, 8, 11, 8, 7, 7, 5, 4, 14, 11, 10, 8, 5, 4, 12, 11, 10, 10, 9, 8, 10, 10, 9, 9, 7, 7, 9, 9, 9, 8, 9, 8, 17, 14, 13, 11, 7, 6, 14, 12, 9, 9, 7, 4, 15, 12, 11, 9, 6, 4, 15, 13, 10, 9, 4, 3, 8, 8, 7, 8, 7, 7, 8, 7, 7, 6, 6, 5, 16, 14, 14, 10, 7, 7, 8, 6, 5, 4, 4, 3, 16, 15, 12, 11, 10, 8, 17, 16, 15, 13, 12, 12, 16, 15, 13, 13, 11, 11, 11, 11, 11, 10, 9, 8, 15, 11, 11, 10, 6, 6, 7, 6, 5, 4, 3, 2, 10, 9, 9, 8, 8, 7, 12, 11, 11, 10, 9, 9, 20, 19, 18, 19, 18, 18, 19, 15, 14, 13, 11, 10, 18, 16, 14, 11, 10, 7, 17, 17, 16, 15, 15, 15, 10, 7, 6, 5, 3, 2, 20, 20, 20, 20, 19, 20, 18, 17, 16, 14, 13, 12, 19, 17, 16, 16, 14, 14|];